(set-logic HORN)
(declare-fun state (Int (Array Int Int) (Array Int Int) (Array Int Int) (Array Int Int) Int Int (Array Int Int) (Array Int Int) Int Int Int Int Int Int Int Int Int Int Int Int Int Bool Bool Bool Bool (Array Int Int) Int) Bool)
(assert (forall ((|hhv_ULTIMATE.start_L5_0_Int| Int) (|hhv_ULTIMATE.start_L5_1_Array_Int_Int| (Array Int Int)) (|hhv_ULTIMATE.start_L5_2_Array_Int_Int| (Array Int Int)) (|hhv_ULTIMATE.start_L5_3_Array_Int_Array_Int_Int| (Array Int Int)) (|hhv_ULTIMATE.start_L5_4_Array_Int_Array_Int_Int| (Array Int Int)) (|hhv_ULTIMATE.start_L5_5_Int| Int) (|hhv_ULTIMATE.start_L5_6_Int| Int) (|hhv_ULTIMATE.start_L5_7_Array_Int_Int| (Array Int Int)) (|hhv_ULTIMATE.start_L5_8_Array_Int_Int| (Array Int Int)) (|hhv_ULTIMATE.start_L5_9_Int| Int) (|hhv_ULTIMATE.start_L5_10_Int| Int) (|hhv_ULTIMATE.start_L5_11_Int| Int) (|hhv_ULTIMATE.start_L5_12_Int| Int) (|hhv_ULTIMATE.start_L5_13_Int| Int) (|hbv_ULTIMATE.start_L19-5_14_Int| Int) (|hhv_ULTIMATE.start_L5_15_Int| Int) (|hhv_ULTIMATE.start_L5_16_Int| Int) (|hhv_ULTIMATE.start_L5_17_Int| Int) (|hhv_ULTIMATE.start_L5_18_Int| Int) (|hbv_ULTIMATE.start_L19-5_19_Int| Int) (|hhv_ULTIMATE.start_L5_20_Int| Int) (|hhv_ULTIMATE.start_L5_21_Int| Int) (|hhv_ULTIMATE.start_L5_22_Bool| Bool) (|.loc.4| Bool) (|.loc.5| Bool) (|.loc.6| Bool) (|hbv_ULTIMATE.start_L-1_1_Array_Int_Int| (Array Int Int)) (|hbv_ULTIMATE.start_L19-1_21_Int| Int) (|.x.330| Int) (|.x.328| (Array Int Int)) (|.x.326| Int) (|.x.324| (Array Int Int)) (|.x.320| Int) (|.x.322| (Array Int Int)) (|.x.334| Int) (|.x.339| Int) (|hhv_ULTIMATE.start_ULTIMATE.startEXIT_22_Bool| Bool) (|.x.321| (Array Int Int)) (|.x.331| Int) (|.x.333| Int) (|.x.340| Int) (|.x.335| Int) (|.loc.8| Bool) (|.x.341| Int) (|.x.337| Int) (|.x.336| Int) (|.loc.9| Bool) (|.loc.7| Bool) (|.x.323| (Array Int Int)) (|.x.332| Int) (|.x.338| Int) (|.x.329| Int) (|.x.325| Int) (|.x.327| (Array Int Int)) (|.xtv.1| (Array Int Int)) (|.xtv.2| Int)) (=> (and (and (and (not .loc.5) (not .loc.4)) (not .loc.6)) (and (and (and (and (and (= hhv_ULTIMATE.start_L5_1_Array_Int_Int hhv_ULTIMATE.start_L5_2_Array_Int_Int) (not hhv_ULTIMATE.start_L5_22_Bool)) (= hhv_ULTIMATE.start_L5_7_Array_Int_Int hhv_ULTIMATE.start_L5_8_Array_Int_Int)) (= hhv_ULTIMATE.start_L5_5_Int hhv_ULTIMATE.start_L5_6_Int)) (= hhv_ULTIMATE.start_L5_3_Array_Int_Array_Int_Int hhv_ULTIMATE.start_L5_4_Array_Int_Array_Int_Int)) (= hhv_ULTIMATE.start_L5_9_Int hhv_ULTIMATE.start_L5_10_Int))) (state |hhv_ULTIMATE.start_L5_0_Int| |hhv_ULTIMATE.start_L5_1_Array_Int_Int| |hhv_ULTIMATE.start_L5_2_Array_Int_Int| |hhv_ULTIMATE.start_L5_3_Array_Int_Array_Int_Int| |hhv_ULTIMATE.start_L5_4_Array_Int_Array_Int_Int| |hhv_ULTIMATE.start_L5_5_Int| |hhv_ULTIMATE.start_L5_6_Int| |hhv_ULTIMATE.start_L5_7_Array_Int_Int| |hhv_ULTIMATE.start_L5_8_Array_Int_Int| |hhv_ULTIMATE.start_L5_9_Int| |hhv_ULTIMATE.start_L5_10_Int| |hhv_ULTIMATE.start_L5_11_Int| |hhv_ULTIMATE.start_L5_12_Int| |hhv_ULTIMATE.start_L5_13_Int| |hbv_ULTIMATE.start_L19-5_14_Int| |hhv_ULTIMATE.start_L5_15_Int| |hhv_ULTIMATE.start_L5_16_Int| |hhv_ULTIMATE.start_L5_17_Int| |hhv_ULTIMATE.start_L5_18_Int| |hbv_ULTIMATE.start_L19-5_19_Int| |hhv_ULTIMATE.start_L5_20_Int| |hhv_ULTIMATE.start_L5_21_Int| |hhv_ULTIMATE.start_L5_22_Bool| |.loc.4| |.loc.5| |.loc.6| |hbv_ULTIMATE.start_L-1_1_Array_Int_Int| |hbv_ULTIMATE.start_L19-1_21_Int|))))
(assert (forall ((|hhv_ULTIMATE.start_L5_0_Int| Int) (|hhv_ULTIMATE.start_L5_1_Array_Int_Int| (Array Int Int)) (|hhv_ULTIMATE.start_L5_2_Array_Int_Int| (Array Int Int)) (|hhv_ULTIMATE.start_L5_3_Array_Int_Array_Int_Int| (Array Int Int)) (|hhv_ULTIMATE.start_L5_4_Array_Int_Array_Int_Int| (Array Int Int)) (|hhv_ULTIMATE.start_L5_5_Int| Int) (|hhv_ULTIMATE.start_L5_6_Int| Int) (|hhv_ULTIMATE.start_L5_7_Array_Int_Int| (Array Int Int)) (|hhv_ULTIMATE.start_L5_8_Array_Int_Int| (Array Int Int)) (|hhv_ULTIMATE.start_L5_9_Int| Int) (|hhv_ULTIMATE.start_L5_10_Int| Int) (|hhv_ULTIMATE.start_L5_11_Int| Int) (|hhv_ULTIMATE.start_L5_12_Int| Int) (|hhv_ULTIMATE.start_L5_13_Int| Int) (|hbv_ULTIMATE.start_L19-5_14_Int| Int) (|hhv_ULTIMATE.start_L5_15_Int| Int) (|hhv_ULTIMATE.start_L5_16_Int| Int) (|hhv_ULTIMATE.start_L5_17_Int| Int) (|hhv_ULTIMATE.start_L5_18_Int| Int) (|hbv_ULTIMATE.start_L19-5_19_Int| Int) (|hhv_ULTIMATE.start_L5_20_Int| Int) (|hhv_ULTIMATE.start_L5_21_Int| Int) (|hhv_ULTIMATE.start_L5_22_Bool| Bool) (|.loc.4| Bool) (|.loc.5| Bool) (|.loc.6| Bool) (|hbv_ULTIMATE.start_L-1_1_Array_Int_Int| (Array Int Int)) (|hbv_ULTIMATE.start_L19-1_21_Int| Int) (|.x.330| Int) (|.x.328| (Array Int Int)) (|.x.326| Int) (|.x.324| (Array Int Int)) (|.x.320| Int) (|.x.322| (Array Int Int)) (|.x.334| Int) (|.x.339| Int) (|hhv_ULTIMATE.start_ULTIMATE.startEXIT_22_Bool| Bool) (|.x.321| (Array Int Int)) (|.x.331| Int) (|.x.333| Int) (|.x.340| Int) (|.x.335| Int) (|.loc.8| Bool) (|.x.341| Int) (|.x.337| Int) (|.x.336| Int) (|.loc.9| Bool) (|.loc.7| Bool) (|.x.323| (Array Int Int)) (|.x.332| Int) (|.x.338| Int) (|.x.329| Int) (|.x.325| Int) (|.x.327| (Array Int Int)) (|.xtv.1| (Array Int Int)) (|.xtv.2| Int)) (=> (and (state |hhv_ULTIMATE.start_L5_0_Int| |hhv_ULTIMATE.start_L5_1_Array_Int_Int| |hhv_ULTIMATE.start_L5_2_Array_Int_Int| |hhv_ULTIMATE.start_L5_3_Array_Int_Array_Int_Int| |hhv_ULTIMATE.start_L5_4_Array_Int_Array_Int_Int| |hhv_ULTIMATE.start_L5_5_Int| |hhv_ULTIMATE.start_L5_6_Int| |hhv_ULTIMATE.start_L5_7_Array_Int_Int| |hhv_ULTIMATE.start_L5_8_Array_Int_Int| |hhv_ULTIMATE.start_L5_9_Int| |hhv_ULTIMATE.start_L5_10_Int| |hhv_ULTIMATE.start_L5_11_Int| |hhv_ULTIMATE.start_L5_12_Int| |hhv_ULTIMATE.start_L5_13_Int| |hbv_ULTIMATE.start_L19-5_14_Int| |hhv_ULTIMATE.start_L5_15_Int| |hhv_ULTIMATE.start_L5_16_Int| |hhv_ULTIMATE.start_L5_17_Int| |hhv_ULTIMATE.start_L5_18_Int| |hbv_ULTIMATE.start_L19-5_19_Int| |hhv_ULTIMATE.start_L5_20_Int| |hhv_ULTIMATE.start_L5_21_Int| |hhv_ULTIMATE.start_L5_22_Bool| |.loc.4| |.loc.5| |.loc.6| |hbv_ULTIMATE.start_L-1_1_Array_Int_Int| |hbv_ULTIMATE.start_L19-1_21_Int|) (let ((.def_38 (not .loc.5))) (let ((.def_39 (not .loc.4))) (let ((.def_41 (not .loc.6))) (let ((.def_74 (= .x.334 0))) (let ((.def_84 (or hhv_ULTIMATE.start_L5_22_Bool (and (= .x.334 .x.339) (= .x.339 (ite (<= hhv_ULTIMATE.start_L5_17_Int 1024) 1 0)))))) (let ((.def_88 (= hhv_ULTIMATE.start_L5_1_Array_Int_Int .x.321))) (let ((.def_91 (= hhv_ULTIMATE.start_L5_11_Int .x.331))) (let ((.def_94 (= hhv_ULTIMATE.start_L5_13_Int .x.333))) (let ((.def_97 (= hhv_ULTIMATE.start_L5_20_Int .x.340))) (let ((.def_108 (= hhv_ULTIMATE.start_L5_22_Bool hhv_ULTIMATE.start_ULTIMATE.startEXIT_22_Bool))) (let ((.def_110 (= hbv_ULTIMATE.start_L19-5_19_Int .x.339))) (let ((.def_112 (= hbv_ULTIMATE.start_L19-5_14_Int .x.334))) (let ((.def_120 (and hhv_ULTIMATE.start_L5_22_Bool .def_88))) (let ((.def_129 (not .loc.8))) (let ((.def_134 (= hhv_ULTIMATE.start_L5_21_Int .x.341))) (let ((.def_136 (= hbv_ULTIMATE.start_L19-1_21_Int 0))) (let ((.def_139 (and .def_94 (and .def_88 .def_91)))) (let ((.def_142 (and .loc.5 (and .loc.4 (and .def_97 .def_139))))) (let ((.def_152 (select hhv_ULTIMATE.start_L5_3_Array_Int_Array_Int_Int hhv_ULTIMATE.start_L5_13_Int))) (let ((.def_156 (or hhv_ULTIMATE.start_L5_22_Bool (= hbv_ULTIMATE.start_L19-1_21_Int (select .def_152 (+ (* 4 hhv_ULTIMATE.start_L5_17_Int) hhv_ULTIMATE.start_L5_20_Int)))))) (let ((.def_160 (= hhv_ULTIMATE.start_L5_17_Int .x.337))) (let ((.def_162 (= hhv_ULTIMATE.start_L5_16_Int .x.336))) (let ((.def_167 (not .loc.7))) (let ((.def_179 (not .loc.9))) (let ((.def_185 (or hhv_ULTIMATE.start_ULTIMATE.startEXIT_22_Bool (= (+ hhv_ULTIMATE.start_L5_17_Int (* (- 1) .x.337)) (- 1))))) (let ((.def_224 (= hhv_ULTIMATE.start_L5_3_Array_Int_Array_Int_Int .x.323))) (let ((.def_231 (= .x.337 0))) (let ((.def_236 (and .def_134 (and .def_97 (and .def_139 .def_162))))) (let ((.def_266 (<= 1023 hhv_ULTIMATE.start_L5_17_Int))) (and (and (= hhv_ULTIMATE.start_L5_10_Int .x.330) (and (= hhv_ULTIMATE.start_L5_8_Array_Int_Int .x.328) (and (= hhv_ULTIMATE.start_L5_6_Int .x.326) (and (= hhv_ULTIMATE.start_L5_4_Array_Int_Array_Int_Int .x.324) (and (= hhv_ULTIMATE.start_L5_0_Int .x.320) (= hhv_ULTIMATE.start_L5_2_Array_Int_Int .x.322)))))) (or (and (or (and (or (or (or (and (or (or (or (and (or (and (or (and (or (and .def_39 (and (or hhv_ULTIMATE.start_L5_22_Bool .def_74) (and (and (and (and (and .def_84 hhv_ULTIMATE.start_ULTIMATE.startEXIT_22_Bool) .def_88) .def_91) .def_94) .def_97))) (and (or hhv_ULTIMATE.start_L5_22_Bool (= .x.321 (store hhv_ULTIMATE.start_L5_1_Array_Int_Int hhv_ULTIMATE.start_L5_13_Int 0))) (and (and (and (and .loc.4 (or hhv_ULTIMATE.start_ULTIMATE.startEXIT_22_Bool (= .x.331 .x.335))) .def_108) .def_110) .def_112))) (and (and .loc.6 .def_38) .loc.8)) (and .def_41 (and (and .def_112 (and .def_110 (and .def_108 (and .loc.5 (and .loc.4 (and .def_97 (and .def_94 (and .def_91 .def_120)))))))) .def_129))) .def_134) (and (and (or hhv_ULTIMATE.start_ULTIMATE.startEXIT_22_Bool .def_136) (and .def_41 (and .def_129 (and .def_112 (and .def_110 (and .def_108 .def_142)))))) .def_156)) (and (and (and .def_160 .def_162) .loc.9) .def_167)) (and (or hhv_ULTIMATE.start_ULTIMATE.startEXIT_22_Bool (not .def_136)) (and (and (and .def_156 (and .def_41 (and .def_112 (and .def_110 (and .def_108 (and .loc.8 (and .def_142 .loc.7))))))) .def_179) .def_185))) (and (or hhv_ULTIMATE.start_ULTIMATE.startEXIT_22_Bool (not .def_74)) (and .def_129 (and .def_108 (and .loc.9 (and .loc.7 (and .def_38 (and .def_39 (and .loc.6 (and .def_134 (and .def_97 (and .def_160 (and .def_162 (and .def_94 (and .def_91 (and .def_84 .def_88)))))))))))))))) (and .def_129 (and .loc.9 (and .loc.7 (and .def_38 (and .def_39 (and .loc.6 (and .def_134 (and .def_97 (and .def_160 (and .def_162 (and .def_94 (and .def_91 (and .def_88 (and .def_84 (and hhv_ULTIMATE.start_L5_22_Bool hhv_ULTIMATE.start_ULTIMATE.startEXIT_22_Bool)))))))))))))))) .def_224) (and (or hhv_ULTIMATE.start_L5_22_Bool (and (= .x.323 (store hhv_ULTIMATE.start_L5_3_Array_Int_Array_Int_Int hhv_ULTIMATE.start_L5_13_Int (store .def_152 (+ hhv_ULTIMATE.start_L5_20_Int 4092) 0))) .def_231)) (and .def_179 (and .def_41 (and .def_112 (and .def_110 (and .def_108 (and .loc.8 (and .loc.7 (and .def_39 (and .loc.5 .def_236))))))))))) (and .def_179 (and .def_41 (and .def_112 (and .def_110 (and .def_108 (and .def_167 (and .loc.8 (and .def_38 (and .loc.4 (and .def_134 (and .def_97 (and .def_160 (and .def_162 (and .def_94 (and .def_91 (and .def_120 .def_224))))))))))))))))) (and (or hhv_ULTIMATE.start_L5_22_Bool .def_266) (and .def_179 (and .def_41 (and .def_112 (and .def_110 (and .def_108 (and .def_167 (and .loc.8 (and .def_38 (and .loc.4 (and .def_134 (and .def_97 (and .def_160 (and .def_162 (and .def_94 (and .def_91 (and .def_88 .def_224)))))))))))))))))) (and (= hhv_ULTIMATE.start_L5_12_Int .x.332) (= hhv_ULTIMATE.start_L5_18_Int .x.338))) (and (or hhv_ULTIMATE.start_L5_22_Bool (and (and (and (= .x.323 (store hhv_ULTIMATE.start_L5_3_Array_Int_Array_Int_Int hhv_ULTIMATE.start_L5_13_Int (store .def_152 (+ (* 4 hhv_ULTIMATE.start_L5_17_Int) hhv_ULTIMATE.start_L5_20_Int) hhv_ULTIMATE.start_L5_12_Int))) (<= hhv_ULTIMATE.start_L5_12_Int 2147483647)) (<= (- 2147483648) hhv_ULTIMATE.start_L5_12_Int)) (not .def_266))) (and .def_185 (and .def_179 (and .def_41 (and .def_129 (and .def_112 (and .def_110 (and .def_108 (and .loc.7 (and .def_38 (and .loc.4 .def_236)))))))))))) (and (= hhv_ULTIMATE.start_L5_15_Int .x.335) (and (= hhv_ULTIMATE.start_L5_9_Int .x.329) (and (= hhv_ULTIMATE.start_L5_5_Int .x.325) (= hhv_ULTIMATE.start_L5_7_Array_Int_Int .x.327))))) (and (or hhv_ULTIMATE.start_L5_22_Bool (and (and (= .x.325 0) (= .x.329 0)) (= hbv_ULTIMATE.start_L-1_1_Array_Int_Int (store hhv_ULTIMATE.start_L5_1_Array_Int_Int 0 0)))) (and (or hhv_ULTIMATE.start_ULTIMATE.startEXIT_22_Bool (and (and (and .def_231 (and (and (not (<= .x.320 .x.333)) (and (= .x.321 (store hbv_ULTIMATE.start_L-1_1_Array_Int_Int .x.333 1)) (not (= .x.333 0)))) (= (select hbv_ULTIMATE.start_L-1_1_Array_Int_Int .x.333) 0))) (= .x.327 (store hhv_ULTIMATE.start_L5_7_Array_Int_Int .x.333 4096))) (= .x.340 0))) (and .def_179 (and .def_41 (and .def_129 (and .def_112 (and .def_110 (and .def_108 (and .loc.7 (and .def_38 (and .def_39 (and .def_91 .def_224)))))))))))))))))))))))))))))))))))))))))))) (state |.x.320| |.x.321| |.x.322| |.x.323| |.x.324| |.x.325| |.x.326| |.x.327| |.x.328| |.x.329| |.x.330| |.x.331| |.x.332| |.x.333| |.x.334| |.x.335| |.x.336| |.x.337| |.x.338| |.x.339| |.x.340| |.x.341| |hhv_ULTIMATE.start_ULTIMATE.startEXIT_22_Bool| |.loc.7| |.loc.8| |.loc.9| |.xtv.1| |.xtv.2|))))
(assert (forall ((|hhv_ULTIMATE.start_L5_0_Int| Int) (|hhv_ULTIMATE.start_L5_1_Array_Int_Int| (Array Int Int)) (|hhv_ULTIMATE.start_L5_2_Array_Int_Int| (Array Int Int)) (|hhv_ULTIMATE.start_L5_3_Array_Int_Array_Int_Int| (Array Int Int)) (|hhv_ULTIMATE.start_L5_4_Array_Int_Array_Int_Int| (Array Int Int)) (|hhv_ULTIMATE.start_L5_5_Int| Int) (|hhv_ULTIMATE.start_L5_6_Int| Int) (|hhv_ULTIMATE.start_L5_7_Array_Int_Int| (Array Int Int)) (|hhv_ULTIMATE.start_L5_8_Array_Int_Int| (Array Int Int)) (|hhv_ULTIMATE.start_L5_9_Int| Int) (|hhv_ULTIMATE.start_L5_10_Int| Int) (|hhv_ULTIMATE.start_L5_11_Int| Int) (|hhv_ULTIMATE.start_L5_12_Int| Int) (|hhv_ULTIMATE.start_L5_13_Int| Int) (|hbv_ULTIMATE.start_L19-5_14_Int| Int) (|hhv_ULTIMATE.start_L5_15_Int| Int) (|hhv_ULTIMATE.start_L5_16_Int| Int) (|hhv_ULTIMATE.start_L5_17_Int| Int) (|hhv_ULTIMATE.start_L5_18_Int| Int) (|hbv_ULTIMATE.start_L19-5_19_Int| Int) (|hhv_ULTIMATE.start_L5_20_Int| Int) (|hhv_ULTIMATE.start_L5_21_Int| Int) (|hhv_ULTIMATE.start_L5_22_Bool| Bool) (|.loc.4| Bool) (|.loc.5| Bool) (|.loc.6| Bool) (|hbv_ULTIMATE.start_L-1_1_Array_Int_Int| (Array Int Int)) (|hbv_ULTIMATE.start_L19-1_21_Int| Int) (|.x.330| Int) (|.x.328| (Array Int Int)) (|.x.326| Int) (|.x.324| (Array Int Int)) (|.x.320| Int) (|.x.322| (Array Int Int)) (|.x.334| Int) (|.x.339| Int) (|hhv_ULTIMATE.start_ULTIMATE.startEXIT_22_Bool| Bool) (|.x.321| (Array Int Int)) (|.x.331| Int) (|.x.333| Int) (|.x.340| Int) (|.x.335| Int) (|.loc.8| Bool) (|.x.341| Int) (|.x.337| Int) (|.x.336| Int) (|.loc.9| Bool) (|.loc.7| Bool) (|.x.323| (Array Int Int)) (|.x.332| Int) (|.x.338| Int) (|.x.329| Int) (|.x.325| Int) (|.x.327| (Array Int Int)) (|.xtv.1| (Array Int Int)) (|.xtv.2| Int)) (=> (state |hhv_ULTIMATE.start_L5_0_Int| |hhv_ULTIMATE.start_L5_1_Array_Int_Int| |hhv_ULTIMATE.start_L5_2_Array_Int_Int| |hhv_ULTIMATE.start_L5_3_Array_Int_Array_Int_Int| |hhv_ULTIMATE.start_L5_4_Array_Int_Array_Int_Int| |hhv_ULTIMATE.start_L5_5_Int| |hhv_ULTIMATE.start_L5_6_Int| |hhv_ULTIMATE.start_L5_7_Array_Int_Int| |hhv_ULTIMATE.start_L5_8_Array_Int_Int| |hhv_ULTIMATE.start_L5_9_Int| |hhv_ULTIMATE.start_L5_10_Int| |hhv_ULTIMATE.start_L5_11_Int| |hhv_ULTIMATE.start_L5_12_Int| |hhv_ULTIMATE.start_L5_13_Int| |hbv_ULTIMATE.start_L19-5_14_Int| |hhv_ULTIMATE.start_L5_15_Int| |hhv_ULTIMATE.start_L5_16_Int| |hhv_ULTIMATE.start_L5_17_Int| |hhv_ULTIMATE.start_L5_18_Int| |hbv_ULTIMATE.start_L19-5_19_Int| |hhv_ULTIMATE.start_L5_20_Int| |hhv_ULTIMATE.start_L5_21_Int| |hhv_ULTIMATE.start_L5_22_Bool| |.loc.4| |.loc.5| |.loc.6| |hbv_ULTIMATE.start_L-1_1_Array_Int_Int| |hbv_ULTIMATE.start_L19-1_21_Int|) (not (and hhv_ULTIMATE.start_L5_22_Bool (and .loc.6 (and .loc.5 (not .loc.4))))))))
(check-sat)
